formal/ship_cover/model/design_smt2.smt2
; SMT-LIBv2 description generated by Yosys 0.8+143 (git sha1 c82aa49, clang 3.8.0-2ubuntu4 -fPIC -Os)
; yosys-smt2-module ship
(declare-sort |ship_s| 0)
(declare-fun |ship_is| (|ship_s|) Bool)
; yosys-smt2-output o_ship_x 5
; yosys-smt2-register o_ship_x 5
; yosys-smt2-wire o_ship_x 5
(declare-fun |ship#0| (|ship_s|) (_ BitVec 5)) ; \o_ship_x
(define-fun |ship_n o_ship_x| ((state |ship_s|)) (_ BitVec 5) (|ship#0| state))
; yosys-smt2-wire next_x 5
(declare-fun |ship#1| (|ship_s|) (_ BitVec 1)) ; \i_left_debounced
(define-fun |ship#2| ((state |ship_s|)) (_ BitVec 1) (ite (= ((_ extract 0 0) (|ship#1| state)) #b1) #b0 #b1)) ; $78\next_x[4:0]
(declare-fun |ship#3| (|ship_s|) (_ BitVec 1)) ; \i_reset
(define-fun |ship#4| ((state |ship_s|)) (_ BitVec 5) (ite (= ((_ extract 0 0) (|ship#3| state)) #b1) (concat #b1001 (|ship#2| state)) #b00101)) ; \next_x
(define-fun |ship_n next_x| ((state |ship_s|)) (_ BitVec 5) (|ship#4| state))
; yosys-smt2-input i_right_debounced 1
; yosys-smt2-wire i_right_debounced 1
(declare-fun |ship#5| (|ship_s|) Bool) ; \i_right_debounced
(define-fun |ship_n i_right_debounced| ((state |ship_s|)) Bool (|ship#5| state))
; yosys-smt2-input i_reset 1
; yosys-smt2-wire i_reset 1
(define-fun |ship_n i_reset| ((state |ship_s|)) Bool (= ((_ extract 0 0) (|ship#3| state)) #b1))
; yosys-smt2-input i_left_debounced 1
; yosys-smt2-wire i_left_debounced 1
(define-fun |ship_n i_left_debounced| ((state |ship_s|)) Bool (= ((_ extract 0 0) (|ship#1| state)) #b1))
; yosys-smt2-input i_clk_25MHz 1
; yosys-smt2-wire i_clk_25MHz 1
; yosys-smt2-clock i_clk_25MHz posedge
(declare-fun |ship#6| (|ship_s|) Bool) ; \i_clk_25MHz
(define-fun |ship_n i_clk_25MHz| ((state |ship_s|)) Bool (|ship#6| state))
; yosys-smt2-register $formal$ship.v:86$44_CHECK 1
(declare-fun |ship#7| (|ship_s|) (_ BitVec 1)) ; $formal$ship.v:86$44_CHECK
(define-fun |ship_n $formal$ship.v:86$44_CHECK| ((state |ship_s|)) Bool (= ((_ extract 0 0) (|ship#7| state)) #b1))
; yosys-smt2-register $formal$ship.v:85$43_CHECK 1
(declare-fun |ship#8| (|ship_s|) (_ BitVec 1)) ; $formal$ship.v:85$43_CHECK
(define-fun |ship_n $formal$ship.v:85$43_CHECK| ((state |ship_s|)) Bool (= ((_ extract 0 0) (|ship#8| state)) #b1))
; yosys-smt2-register $formal$ship.v:84$42_CHECK 1
(declare-fun |ship#9| (|ship_s|) (_ BitVec 1)) ; $formal$ship.v:84$42_CHECK
(define-fun |ship_n $formal$ship.v:84$42_CHECK| ((state |ship_s|)) Bool (= ((_ extract 0 0) (|ship#9| state)) #b1))
; yosys-smt2-register $formal$ship.v:83$41_CHECK 1
(declare-fun |ship#10| (|ship_s|) (_ BitVec 1)) ; $formal$ship.v:83$41_CHECK
(define-fun |ship_n $formal$ship.v:83$41_CHECK| ((state |ship_s|)) Bool (= ((_ extract 0 0) (|ship#10| state)) #b1))
; yosys-smt2-register $formal$ship.v:82$40_CHECK 1
(declare-fun |ship#11| (|ship_s|) (_ BitVec 1)) ; $formal$ship.v:82$40_CHECK
(define-fun |ship_n $formal$ship.v:82$40_CHECK| ((state |ship_s|)) Bool (= ((_ extract 0 0) (|ship#11| state)) #b1))
; yosys-smt2-register $formal$ship.v:81$39_CHECK 1
(declare-fun |ship#12| (|ship_s|) (_ BitVec 1)) ; $formal$ship.v:81$39_CHECK
(define-fun |ship_n $formal$ship.v:81$39_CHECK| ((state |ship_s|)) Bool (= ((_ extract 0 0) (|ship#12| state)) #b1))
; yosys-smt2-register $formal$ship.v:80$38_CHECK 1
(declare-fun |ship#13| (|ship_s|) (_ BitVec 1)) ; $formal$ship.v:80$38_CHECK
(define-fun |ship_n $formal$ship.v:80$38_CHECK| ((state |ship_s|)) Bool (= ((_ extract 0 0) (|ship#13| state)) #b1))
; yosys-smt2-register $formal$ship.v:79$37_CHECK 1
(declare-fun |ship#14| (|ship_s|) (_ BitVec 1)) ; $formal$ship.v:79$37_CHECK
(define-fun |ship_n $formal$ship.v:79$37_CHECK| ((state |ship_s|)) Bool (= ((_ extract 0 0) (|ship#14| state)) #b1))
; yosys-smt2-register $formal$ship.v:78$36_CHECK 1
(declare-fun |ship#15| (|ship_s|) (_ BitVec 1)) ; $formal$ship.v:78$36_CHECK
(define-fun |ship_n $formal$ship.v:78$36_CHECK| ((state |ship_s|)) Bool (= ((_ extract 0 0) (|ship#15| state)) #b1))
; yosys-smt2-register $formal$ship.v:77$35_CHECK 1
(declare-fun |ship#16| (|ship_s|) (_ BitVec 1)) ; $formal$ship.v:77$35_CHECK
(define-fun |ship_n $formal$ship.v:77$35_CHECK| ((state |ship_s|)) Bool (= ((_ extract 0 0) (|ship#16| state)) #b1))
; yosys-smt2-register $formal$ship.v:76$34_CHECK 1
(declare-fun |ship#17| (|ship_s|) (_ BitVec 1)) ; $formal$ship.v:76$34_CHECK
(define-fun |ship_n $formal$ship.v:76$34_CHECK| ((state |ship_s|)) Bool (= ((_ extract 0 0) (|ship#17| state)) #b1))
; yosys-smt2-register $formal$ship.v:75$33_CHECK 1
(declare-fun |ship#18| (|ship_s|) (_ BitVec 1)) ; $formal$ship.v:75$33_CHECK
(define-fun |ship_n $formal$ship.v:75$33_CHECK| ((state |ship_s|)) Bool (= ((_ extract 0 0) (|ship#18| state)) #b1))
; yosys-smt2-register $formal$ship.v:74$32_CHECK 1
(declare-fun |ship#19| (|ship_s|) (_ BitVec 1)) ; $formal$ship.v:74$32_CHECK
(define-fun |ship_n $formal$ship.v:74$32_CHECK| ((state |ship_s|)) Bool (= ((_ extract 0 0) (|ship#19| state)) #b1))
; yosys-smt2-register $formal$ship.v:73$31_CHECK 1
(declare-fun |ship#20| (|ship_s|) (_ BitVec 1)) ; $formal$ship.v:73$31_CHECK
(define-fun |ship_n $formal$ship.v:73$31_CHECK| ((state |ship_s|)) Bool (= ((_ extract 0 0) (|ship#20| state)) #b1))
; yosys-smt2-register $formal$ship.v:72$30_CHECK 1
(declare-fun |ship#21| (|ship_s|) (_ BitVec 1)) ; $formal$ship.v:72$30_CHECK
(define-fun |ship_n $formal$ship.v:72$30_CHECK| ((state |ship_s|)) Bool (= ((_ extract 0 0) (|ship#21| state)) #b1))
; yosys-smt2-register $formal$ship.v:71$29_CHECK 1
(declare-fun |ship#22| (|ship_s|) (_ BitVec 1)) ; $formal$ship.v:71$29_CHECK
(define-fun |ship_n $formal$ship.v:71$29_CHECK| ((state |ship_s|)) Bool (= ((_ extract 0 0) (|ship#22| state)) #b1))
; yosys-smt2-register $formal$ship.v:70$28_CHECK 1
(declare-fun |ship#23| (|ship_s|) (_ BitVec 1)) ; $formal$ship.v:70$28_CHECK
(define-fun |ship_n $formal$ship.v:70$28_CHECK| ((state |ship_s|)) Bool (= ((_ extract 0 0) (|ship#23| state)) #b1))
; yosys-smt2-register $formal$ship.v:69$27_CHECK 1
(declare-fun |ship#24| (|ship_s|) (_ BitVec 1)) ; $formal$ship.v:69$27_CHECK
(define-fun |ship_n $formal$ship.v:69$27_CHECK| ((state |ship_s|)) Bool (= ((_ extract 0 0) (|ship#24| state)) #b1))
; yosys-smt2-register $formal$ship.v:68$26_CHECK 1
(declare-fun |ship#25| (|ship_s|) (_ BitVec 1)) ; $formal$ship.v:68$26_CHECK
(define-fun |ship_n $formal$ship.v:68$26_CHECK| ((state |ship_s|)) Bool (= ((_ extract 0 0) (|ship#25| state)) #b1))
; yosys-smt2-register $formal$ship.v:67$25_CHECK 1
(declare-fun |ship#26| (|ship_s|) (_ BitVec 1)) ; $formal$ship.v:67$25_CHECK
(define-fun |ship_n $formal$ship.v:67$25_CHECK| ((state |ship_s|)) Bool (= ((_ extract 0 0) (|ship#26| state)) #b1))
; yosys-smt2-register $formal$ship.v:63$24_CHECK 1
(declare-fun |ship#27| (|ship_s|) (_ BitVec 1)) ; $formal$ship.v:63$24_CHECK
(define-fun |ship_n $formal$ship.v:63$24_CHECK| ((state |ship_s|)) Bool (= ((_ extract 0 0) (|ship#27| state)) #b1))
; yosys-smt2-register $formal$ship.v:62$23_CHECK 1
(declare-fun |ship#28| (|ship_s|) (_ BitVec 1)) ; $formal$ship.v:62$23_CHECK
(define-fun |ship_n $formal$ship.v:62$23_CHECK| ((state |ship_s|)) Bool (= ((_ extract 0 0) (|ship#28| state)) #b1))
; yosys-smt2-register $formal$ship.v:61$22_CHECK 1
(declare-fun |ship#29| (|ship_s|) (_ BitVec 1)) ; $formal$ship.v:61$22_CHECK
(define-fun |ship_n $formal$ship.v:61$22_CHECK| ((state |ship_s|)) Bool (= ((_ extract 0 0) (|ship#29| state)) #b1))
; yosys-smt2-register $formal$ship.v:60$21_EN 1
(declare-fun |ship#30| (|ship_s|) (_ BitVec 1)) ; $formal$ship.v:60$21_EN
(define-fun |ship_n $formal$ship.v:60$21_EN| ((state |ship_s|)) Bool (= ((_ extract 0 0) (|ship#30| state)) #b1))
; yosys-smt2-register $formal$ship.v:60$21_CHECK 1
(declare-fun |ship#31| (|ship_s|) (_ BitVec 1)) ; $formal$ship.v:60$21_CHECK
(define-fun |ship_n $formal$ship.v:60$21_CHECK| ((state |ship_s|)) Bool (= ((_ extract 0 0) (|ship#31| state)) #b1))
; yosys-smt2-cover 0 ship.v:86
(define-fun |ship_c 0| ((state |ship_s|)) Bool (and (= ((_ extract 0 0) (|ship#7| state)) #b1) (= ((_ extract 0 0) (|ship#30| state)) #b1))) ; $cover$ship.v:86$184
; yosys-smt2-cover 1 ship.v:85
(define-fun |ship_c 1| ((state |ship_s|)) Bool (and (= ((_ extract 0 0) (|ship#8| state)) #b1) (= ((_ extract 0 0) (|ship#30| state)) #b1))) ; $cover$ship.v:85$183
; yosys-smt2-cover 2 ship.v:84
(define-fun |ship_c 2| ((state |ship_s|)) Bool (and (= ((_ extract 0 0) (|ship#9| state)) #b1) (= ((_ extract 0 0) (|ship#30| state)) #b1))) ; $cover$ship.v:84$182
; yosys-smt2-cover 3 ship.v:83
(define-fun |ship_c 3| ((state |ship_s|)) Bool (and (= ((_ extract 0 0) (|ship#10| state)) #b1) (= ((_ extract 0 0) (|ship#30| state)) #b1))) ; $cover$ship.v:83$181
; yosys-smt2-cover 4 ship.v:82
(define-fun |ship_c 4| ((state |ship_s|)) Bool (and (= ((_ extract 0 0) (|ship#11| state)) #b1) (= ((_ extract 0 0) (|ship#30| state)) #b1))) ; $cover$ship.v:82$180
; yosys-smt2-cover 5 ship.v:81
(define-fun |ship_c 5| ((state |ship_s|)) Bool (and (= ((_ extract 0 0) (|ship#12| state)) #b1) (= ((_ extract 0 0) (|ship#30| state)) #b1))) ; $cover$ship.v:81$179
; yosys-smt2-cover 6 ship.v:80
(define-fun |ship_c 6| ((state |ship_s|)) Bool (and (= ((_ extract 0 0) (|ship#13| state)) #b1) (= ((_ extract 0 0) (|ship#30| state)) #b1))) ; $cover$ship.v:80$178
; yosys-smt2-cover 7 ship.v:79
(define-fun |ship_c 7| ((state |ship_s|)) Bool (and (= ((_ extract 0 0) (|ship#14| state)) #b1) (= ((_ extract 0 0) (|ship#30| state)) #b1))) ; $cover$ship.v:79$177
; yosys-smt2-cover 8 ship.v:78
(define-fun |ship_c 8| ((state |ship_s|)) Bool (and (= ((_ extract 0 0) (|ship#15| state)) #b1) (= ((_ extract 0 0) (|ship#30| state)) #b1))) ; $cover$ship.v:78$176
; yosys-smt2-cover 9 ship.v:77
(define-fun |ship_c 9| ((state |ship_s|)) Bool (and (= ((_ extract 0 0) (|ship#16| state)) #b1) (= ((_ extract 0 0) (|ship#30| state)) #b1))) ; $cover$ship.v:77$175
; yosys-smt2-cover 10 ship.v:76
(define-fun |ship_c 10| ((state |ship_s|)) Bool (and (= ((_ extract 0 0) (|ship#17| state)) #b1) (= ((_ extract 0 0) (|ship#30| state)) #b1))) ; $cover$ship.v:76$174
; yosys-smt2-cover 11 ship.v:75
(define-fun |ship_c 11| ((state |ship_s|)) Bool (and (= ((_ extract 0 0) (|ship#18| state)) #b1) (= ((_ extract 0 0) (|ship#30| state)) #b1))) ; $cover$ship.v:75$173
; yosys-smt2-cover 12 ship.v:74
(define-fun |ship_c 12| ((state |ship_s|)) Bool (and (= ((_ extract 0 0) (|ship#19| state)) #b1) (= ((_ extract 0 0) (|ship#30| state)) #b1))) ; $cover$ship.v:74$172
; yosys-smt2-cover 13 ship.v:73
(define-fun |ship_c 13| ((state |ship_s|)) Bool (and (= ((_ extract 0 0) (|ship#20| state)) #b1) (= ((_ extract 0 0) (|ship#30| state)) #b1))) ; $cover$ship.v:73$171
; yosys-smt2-cover 14 ship.v:72
(define-fun |ship_c 14| ((state |ship_s|)) Bool (and (= ((_ extract 0 0) (|ship#21| state)) #b1) (= ((_ extract 0 0) (|ship#30| state)) #b1))) ; $cover$ship.v:72$170
; yosys-smt2-cover 15 ship.v:71
(define-fun |ship_c 15| ((state |ship_s|)) Bool (and (= ((_ extract 0 0) (|ship#22| state)) #b1) (= ((_ extract 0 0) (|ship#30| state)) #b1))) ; $cover$ship.v:71$169
; yosys-smt2-cover 16 ship.v:70
(define-fun |ship_c 16| ((state |ship_s|)) Bool (and (= ((_ extract 0 0) (|ship#23| state)) #b1) (= ((_ extract 0 0) (|ship#30| state)) #b1))) ; $cover$ship.v:70$168
; yosys-smt2-cover 17 ship.v:69
(define-fun |ship_c 17| ((state |ship_s|)) Bool (and (= ((_ extract 0 0) (|ship#24| state)) #b1) (= ((_ extract 0 0) (|ship#30| state)) #b1))) ; $cover$ship.v:69$167
; yosys-smt2-cover 18 ship.v:68
(define-fun |ship_c 18| ((state |ship_s|)) Bool (and (= ((_ extract 0 0) (|ship#25| state)) #b1) (= ((_ extract 0 0) (|ship#30| state)) #b1))) ; $cover$ship.v:68$166
; yosys-smt2-cover 19 ship.v:67
(define-fun |ship_c 19| ((state |ship_s|)) Bool (and (= ((_ extract 0 0) (|ship#26| state)) #b1) (= ((_ extract 0 0) (|ship#30| state)) #b1))) ; $cover$ship.v:67$165
; yosys-smt2-assert 0 ship.v:63
(define-fun |ship_a 0| ((state |ship_s|)) Bool (or (= ((_ extract 0 0) (|ship#27| state)) #b1) (not (= ((_ extract 0 0) (|ship#30| state)) #b1)))) ; $assert$ship.v:63$164
; yosys-smt2-assert 1 ship.v:62
(define-fun |ship_a 1| ((state |ship_s|)) Bool (or (= ((_ extract 0 0) (|ship#28| state)) #b1) (not (= ((_ extract 0 0) (|ship#30| state)) #b1)))) ; $assert$ship.v:62$163
; yosys-smt2-assert 2 ship.v:61
(define-fun |ship_a 2| ((state |ship_s|)) Bool (or (= ((_ extract 0 0) (|ship#29| state)) #b1) (not (= ((_ extract 0 0) (|ship#30| state)) #b1)))) ; $assert$ship.v:61$162
; yosys-smt2-assert 3 ship.v:60
(define-fun |ship_a 3| ((state |ship_s|)) Bool (or (= ((_ extract 0 0) (|ship#31| state)) #b1) (not (= ((_ extract 0 0) (|ship#30| state)) #b1)))) ; $assert$ship.v:60$161
(define-fun |ship#32| ((state |ship_s|)) Bool (bvuge (|ship#0| state) #b00000)) ; $0$formal$ship.v:60$21_CHECK[0:0]$89
(define-fun |ship#33| ((state |ship_s|)) Bool (bvule (|ship#0| state) #b10011)) ; $0$formal$ship.v:61$22_CHECK[0:0]$91
(define-fun |ship#34| ((state |ship_s|)) Bool (bvuge (|ship#4| state) #b00000)) ; $0$formal$ship.v:62$23_CHECK[0:0]$93
(define-fun |ship#35| ((state |ship_s|)) Bool (bvule (|ship#4| state) #b10011)) ; $0$formal$ship.v:63$24_CHECK[0:0]$95
(define-fun |ship#36| ((state |ship_s|)) Bool (not (or  (= ((_ extract 0 0) (|ship#0| state)) #b1) (= ((_ extract 1 1) (|ship#0| state)) #b1) (= ((_ extract 2 2) (|ship#0| state)) #b1) (= ((_ extract 3 3) (|ship#0| state)) #b1) (= ((_ extract 4 4) (|ship#0| state)) #b1)))) ; $0$formal$ship.v:67$25_CHECK[0:0]$97
(define-fun |ship#37| ((state |ship_s|)) Bool (= (|ship#0| state) #b00001)) ; $0$formal$ship.v:68$26_CHECK[0:0]$99
(define-fun |ship#38| ((state |ship_s|)) Bool (= (|ship#0| state) #b00010)) ; $0$formal$ship.v:69$27_CHECK[0:0]$101
(define-fun |ship#39| ((state |ship_s|)) Bool (= (|ship#0| state) #b00011)) ; $0$formal$ship.v:70$28_CHECK[0:0]$103
(define-fun |ship#40| ((state |ship_s|)) Bool (= (|ship#0| state) #b00100)) ; $0$formal$ship.v:71$29_CHECK[0:0]$105
(define-fun |ship#41| ((state |ship_s|)) Bool (= (|ship#0| state) #b00101)) ; $0$formal$ship.v:72$30_CHECK[0:0]$107
(define-fun |ship#42| ((state |ship_s|)) Bool (= (|ship#0| state) #b00110)) ; $0$formal$ship.v:73$31_CHECK[0:0]$109
(define-fun |ship#43| ((state |ship_s|)) Bool (= (|ship#0| state) #b00111)) ; $0$formal$ship.v:74$32_CHECK[0:0]$111
(define-fun |ship#44| ((state |ship_s|)) Bool (= (|ship#0| state) #b01000)) ; $0$formal$ship.v:75$33_CHECK[0:0]$113
(define-fun |ship#45| ((state |ship_s|)) Bool (= (|ship#0| state) #b01001)) ; $0$formal$ship.v:76$34_CHECK[0:0]$115
(define-fun |ship#46| ((state |ship_s|)) Bool (= (|ship#0| state) #b01010)) ; $0$formal$ship.v:77$35_CHECK[0:0]$117
(define-fun |ship#47| ((state |ship_s|)) Bool (= (|ship#0| state) #b01011)) ; $0$formal$ship.v:78$36_CHECK[0:0]$119
(define-fun |ship#48| ((state |ship_s|)) Bool (= (|ship#0| state) #b01100)) ; $0$formal$ship.v:79$37_CHECK[0:0]$121
(define-fun |ship#49| ((state |ship_s|)) Bool (= (|ship#0| state) #b01101)) ; $0$formal$ship.v:80$38_CHECK[0:0]$123
(define-fun |ship#50| ((state |ship_s|)) Bool (= (|ship#0| state) #b01110)) ; $0$formal$ship.v:81$39_CHECK[0:0]$125
(define-fun |ship#51| ((state |ship_s|)) Bool (= (|ship#0| state) #b01111)) ; $0$formal$ship.v:82$40_CHECK[0:0]$127
(define-fun |ship#52| ((state |ship_s|)) Bool (= (|ship#0| state) #b10000)) ; $0$formal$ship.v:83$41_CHECK[0:0]$129
(define-fun |ship#53| ((state |ship_s|)) Bool (= (|ship#0| state) #b10001)) ; $0$formal$ship.v:84$42_CHECK[0:0]$131
(define-fun |ship#54| ((state |ship_s|)) Bool (= (|ship#0| state) #b10010)) ; $0$formal$ship.v:85$43_CHECK[0:0]$133
(define-fun |ship#55| ((state |ship_s|)) Bool (= (|ship#0| state) #b10011)) ; $0$formal$ship.v:86$44_CHECK[0:0]$135
(define-fun |ship_a| ((state |ship_s|)) Bool (and
  (|ship_a 0| state)
  (|ship_a 1| state)
  (|ship_a 2| state)
  (|ship_a 3| state)
))
(define-fun |ship_u| ((state |ship_s|)) Bool true)
(define-fun |ship_i| ((state |ship_s|)) Bool (and
  (= (|ship#0| state) #b00101) ; o_ship_x
  (= (= ((_ extract 0 0) (|ship#30| state)) #b1) false) ; $formal$ship.v:60$21_EN
))
(define-fun |ship_h| ((state |ship_s|)) Bool true)
(define-fun |ship_t| ((state |ship_s|) (next_state |ship_s|)) Bool (and
  (= (ite (|ship#32| state) #b1 #b0) (|ship#31| next_state)) ; $procdff$837 $formal$ship.v:60$21_CHECK
  (= #b1 (|ship#30| next_state)) ; $procdff$838 $formal$ship.v:60$21_EN
  (= (ite (|ship#33| state) #b1 #b0) (|ship#29| next_state)) ; $procdff$839 $formal$ship.v:61$22_CHECK
  (= (ite (|ship#34| state) #b1 #b0) (|ship#28| next_state)) ; $procdff$841 $formal$ship.v:62$23_CHECK
  (= (ite (|ship#35| state) #b1 #b0) (|ship#27| next_state)) ; $procdff$843 $formal$ship.v:63$24_CHECK
  (= (ite (|ship#36| state) #b1 #b0) (|ship#26| next_state)) ; $procdff$845 $formal$ship.v:67$25_CHECK
  (= (ite (|ship#37| state) #b1 #b0) (|ship#25| next_state)) ; $procdff$847 $formal$ship.v:68$26_CHECK
  (= (ite (|ship#38| state) #b1 #b0) (|ship#24| next_state)) ; $procdff$849 $formal$ship.v:69$27_CHECK
  (= (ite (|ship#39| state) #b1 #b0) (|ship#23| next_state)) ; $procdff$851 $formal$ship.v:70$28_CHECK
  (= (ite (|ship#40| state) #b1 #b0) (|ship#22| next_state)) ; $procdff$853 $formal$ship.v:71$29_CHECK
  (= (ite (|ship#41| state) #b1 #b0) (|ship#21| next_state)) ; $procdff$855 $formal$ship.v:72$30_CHECK
  (= (ite (|ship#42| state) #b1 #b0) (|ship#20| next_state)) ; $procdff$857 $formal$ship.v:73$31_CHECK
  (= (ite (|ship#43| state) #b1 #b0) (|ship#19| next_state)) ; $procdff$859 $formal$ship.v:74$32_CHECK
  (= (ite (|ship#44| state) #b1 #b0) (|ship#18| next_state)) ; $procdff$861 $formal$ship.v:75$33_CHECK
  (= (ite (|ship#45| state) #b1 #b0) (|ship#17| next_state)) ; $procdff$863 $formal$ship.v:76$34_CHECK
  (= (ite (|ship#46| state) #b1 #b0) (|ship#16| next_state)) ; $procdff$865 $formal$ship.v:77$35_CHECK
  (= (ite (|ship#47| state) #b1 #b0) (|ship#15| next_state)) ; $procdff$867 $formal$ship.v:78$36_CHECK
  (= (ite (|ship#48| state) #b1 #b0) (|ship#14| next_state)) ; $procdff$869 $formal$ship.v:79$37_CHECK
  (= (ite (|ship#49| state) #b1 #b0) (|ship#13| next_state)) ; $procdff$871 $formal$ship.v:80$38_CHECK
  (= (ite (|ship#50| state) #b1 #b0) (|ship#12| next_state)) ; $procdff$873 $formal$ship.v:81$39_CHECK
  (= (ite (|ship#51| state) #b1 #b0) (|ship#11| next_state)) ; $procdff$875 $formal$ship.v:82$40_CHECK
  (= (ite (|ship#52| state) #b1 #b0) (|ship#10| next_state)) ; $procdff$877 $formal$ship.v:83$41_CHECK
  (= (ite (|ship#53| state) #b1 #b0) (|ship#9| next_state)) ; $procdff$879 $formal$ship.v:84$42_CHECK
  (= (ite (|ship#54| state) #b1 #b0) (|ship#8| next_state)) ; $procdff$881 $formal$ship.v:85$43_CHECK
  (= (ite (|ship#55| state) #b1 #b0) (|ship#7| next_state)) ; $procdff$883 $formal$ship.v:86$44_CHECK
  (= (|ship#4| state) (|ship#0| next_state)) ; $procdff$885 \o_ship_x
)) ; end of module ship
; yosys-smt2-topmod ship
; end of yosys output
